Gurobi Optimizer version 9.1.2 build v9.1.2rc0 (linux64)
Thread count: 36 physical cores, 72 logical processors, using up to 32 threads
Optimize a model with 12 rows, 57 columns and 590 nonzeros
Model fingerprint: 0xf32eec78
Model has 47 quadratic constraints
Coefficient statistics:
  Matrix range     [2e-05, 3e+00]
  QMatrix range    [1e+00, 1e+00]
  QLMatrix range   [1e+00, 1e+00]
  Objective range  [8e-03, 7e-01]
  Bounds range     [1e+00, 1e+00]
  RHS range        [1e+00, 1e+00]
Presolve removed 9 rows and 0 columns

Continuous model is non-convex -- solving as a MIP.

Presolve removed 9 rows and 0 columns
Presolve time: 0.00s
Presolved: 189 rows, 57 columns, 443 nonzeros
Presolved model has 47 bilinear constraint(s)
Variable types: 57 continuous, 0 integer (0 binary)

Root relaxation: objective -1.743721e+00, 44 iterations, 0.00 seconds

    Nodes    |    Current Node    |     Objective Bounds      |     Work
 Expl Unexpl |  Obj  Depth IntInf | Incumbent    BestBd   Gap | It/Node Time

     0     0   -1.74372    0   38          -   -1.74372      -     -    0s
H    0     0                       0.6147548   -1.74372   384%     -    0s
     0     0   -1.64739    0    1    0.61475   -1.64739   368%     -    0s
H    0     0                      -1.6450460   -1.64739  0.14%     -    0s
     0     0     cutoff    0        -1.64505   -1.64505  0.00%     -    0s

Cutting planes:
  RLT: 25
  BQP: 3

Explored 1 nodes (76 simplex iterations) in 0.01 seconds
Thread count was 32 (of 72 available processors)

Solution count 2: -1.64505 0.614755 
No other solutions better than -1.64505

Optimal solution found (tolerance 1.00e-04)
Best objective -1.645045978473e+00, best bound -1.645045978473e+00, gap 0.0000%

User-callback calls 78, time in user-callback 0.00 sec
Gurobi Optimizer version 9.1.2 build v9.1.2rc0 (linux64)
Thread count: 36 physical cores, 72 logical processors, using up to 32 threads
Optimize a model with 60 rows, 312 columns and 16100 nonzeros
Model fingerprint: 0x01f3aefe
Model has 262 quadratic constraints
Coefficient statistics:
  Matrix range     [4e-07, 7e+00]
  QMatrix range    [1e+00, 1e+00]
  QLMatrix range   [1e+00, 1e+00]
  Objective range  [2e-03, 1e+00]
  Bounds range     [1e+00, 1e+00]
  RHS range        [1e+00, 1e+00]
Presolve removed 15 rows and 0 columns

Continuous model is non-convex -- solving as a MIP.

Presolve removed 15 rows and 0 columns
Presolve time: 0.01s
Presolved: 1081 rows, 312 columns, 13449 nonzeros
Presolved model has 262 bilinear constraint(s)
Variable types: 312 continuous, 0 integer (0 binary)

Root relaxation: objective -1.784405e+01, 302 iterations, 0.01 seconds

    Nodes    |    Current Node    |     Objective Bounds      |     Work
 Expl Unexpl |  Obj  Depth IntInf | Incumbent    BestBd   Gap | It/Node Time

     0     0  -17.84405    0  175          -  -17.84405      -     -    0s
     0     0  -17.32956    0   43          -  -17.32956      -     -    0s
     0     0  -17.28723    0   52          -  -17.28723      -     -    0s
     0     0  -17.18991    0   40          -  -17.18991      -     -    0s
     0     0  -17.18935    0   40          -  -17.18935      -     -    0s
     0     0  -17.17579    0   44          -  -17.17579      -     -    0s
     0     0  -17.17165    0   44          -  -17.17165      -     -    0s
     0     0  -17.16803    0   38          -  -17.16803      -     -    0s
     0     0  -17.16797    0   38          -  -17.16797      -     -    0s
     0     0  -17.16752    0   38          -  -17.16752      -     -    0s
     0     2  -17.16752    0   38          -  -17.16752      -     -    0s
* 2307  2005              50     -16.4524746  -16.70846  1.56%  35.6    1s
* 2309  2005              51     -16.4524752  -16.70846  1.56%  35.6    1s
* 2739  1800              43     -16.4926239  -16.66159  1.02%  34.2    1s
* 5233   481              59     -16.4927170  -16.66159  1.02%  39.5    2s
* 5801   702              59     -16.4952449  -16.66159  1.01%  38.5    3s
* 5803   702              60     -16.4967527  -16.66159  1.00%  38.5    3s
* 5804   702              60     -16.4968099  -16.66159  1.00%  38.5    3s
* 5806   702              59     -16.4971826  -16.66159  1.00%  38.5    3s
* 6651   871              57     -16.4972303  -16.66159  1.00%  37.3    3s
* 7035   991              59     -16.5045493  -16.66159  0.95%  36.8    3s
* 7162   991              58     -16.5200818  -16.66159  0.86%  36.5    3s
* 7978  1086              63     -16.5202471  -16.66159  0.86%  35.5    3s
* 7979  1086              62     -16.5202557  -16.66159  0.86%  35.5    3s
* 8246  1199              59     -16.5234363  -16.66159  0.84%  35.4    3s
* 8247  1199              59     -16.5234372  -16.66159  0.84%  35.4    3s
* 8699  1235              62     -16.5234917  -16.65545  0.80%  34.6    4s
* 8862  1297              64     -16.5235709  -16.65545  0.80%  34.3    4s
* 9014  1297              64     -16.5240830  -16.65545  0.79%  34.1    4s
* 9015  1297              64     -16.5240850  -16.65545  0.79%  34.1    4s
* 9052  1297              60     -16.5243538  -16.65545  0.79%  34.0    4s
* 9053  1297              60     -16.5243541  -16.65545  0.79%  34.0    4s
* 9055  1297              60     -16.5244277  -16.65545  0.79%  34.0    4s
* 9056  1297              60     -16.5244278  -16.65545  0.79%  34.0    4s
* 9131  1343              47     -16.5245381  -16.64058  0.70%  33.9    4s
* 9259  1343              64     -16.5269677  -16.64058  0.69%  33.7    4s
*10445  1482              55     -16.5287864  -16.59798  0.42%  32.4    4s
*10451  1482              54     -16.5290805  -16.59798  0.42%  32.4    4s
*11034  1525              66     -16.5292578  -16.59798  0.42%  31.7    4s
*11448  1550              66     -16.5292677  -16.59798  0.42%  31.2    4s
*11452  1550              66     -16.5292750  -16.59798  0.42%  31.2    4s
*11455  1550              66     -16.5292752  -16.59798  0.42%  31.2    4s
 12149  1589  -16.53361   33   19  -16.52928  -16.59798  0.42%  30.4    5s
*12591  1589              57     -16.5293807  -16.59798  0.42%  29.9    5s
*12592  1589              57     -16.5293917  -16.59798  0.41%  29.9    5s
*12594  1589              57     -16.5293994  -16.59798  0.41%  29.9    5s
*12597  1589              58     -16.5294023  -16.59798  0.41%  29.9    5s
*12997  1657              62     -16.5295528  -16.59798  0.41%  29.4    5s
*13000  1657              61     -16.5295818  -16.59798  0.41%  29.4    5s
*13468  1770              53     -16.5296241  -16.59798  0.41%  28.8    5s
*14158  1873              57     -16.5297332  -16.59798  0.41%  27.9    5s
*14563  1801              70     -16.5297585  -16.54639  0.10%  27.5    5s
*14601  1801              58     -16.5301250  -16.54639  0.10%  27.4    5s
*14645  1801              67     -16.5315522  -16.54639  0.09%  27.4    5s
*19121  1801              68     -16.5316197  -16.53577  0.03%  23.4    6s
*19122  1801              68     -16.5316275  -16.53577  0.03%  23.4    6s
*20738  1833              63     -16.5316421  -16.53451  0.02%  22.1    6s
*20739  1833              63     -16.5316447  -16.53451  0.02%  22.1    6s

Explored 24613 nodes (487759 simplex iterations) in 6.85 seconds
Thread count was 32 (of 72 available processors)

Solution count 10: -16.5316 -16.5316 -16.5316 ... -16.5296

Optimal solution found (tolerance 1.00e-04)
Best objective -1.653164472124e+01, best bound -1.653300648082e+01, gap 0.0082%

User-callback calls 50133, time in user-callback 0.01 sec



objective value: -16.53164472124118
objective bound: -16.5330064808197
x_opt: [1.0, 1.0, 0.044215990500194015, 0.21976636882438785, 0.0, 0.0, 1.0, 0.0, 0.0, 0.0, 1.0, 0.0, 1.0, 1.0, 0.07861240569399178, 1.0, 0.0, 1.0, 0.0, 0.0, 0.647558130834933, 0.7262016699116747, 0.0, 0.7401025533147441, 0.0, 0.6134883170764657, 0.0, 1.0, 0.0, 0.0, 1.0, 0.7917171165319621, 0.0, 0.3250732082894789, 1.0, 1.0, 0.16421714994433081, 1.0, 0.0, 0.9542139228239119, 1.0, 0.0, 1.0, 0.0, 0.0, 0.0, 0.7711740385412312, 0.0, 1.0, 0.003817648288088899]
GUROBI solution time: 6.853474140167236




